(declare-const p9 Real)
(declare-const special Real)
(declare-const sin Real)
(declare-const p7 Real)
(declare-const fee_bl Real)
(declare-const p4 Real)
(declare-const p11_5 Real)
(declare-const income Real)
(assert (= p4 (* 0.04 (ite (> income 54707) 54707 income))))
(assert (= p7 (ite (> income 54707) (* 0.07 (- (ite (> income 109413) 109413 income) 54707)) 0)))
(assert (= p9 (ite (> income 109413) (* 0.09 (- (ite (> income 177881) 177881 income) 109413)) 0)))
(assert (= p11_5 (ite (> income 177881) (* 0.115 (- income 177881)) 0)))
(assert (= special (ite (>= sin 900000000) 0 1)))
(assert (= fee_bl (* special (+ (+ (+ p4 p7) p9) p11_5))))